Route #1:
Route #2: 16 23 55
Route #3: 40 44
Route #4: 54 10 22 53 6 25 45 6 47 56 41 25
Route #5: 30
Route #6: 28 49
Route #7: 57 15
Route #8: 22 17 15
Route #9: 19 8 46 35
Route #10: 2 34
Route #11: 21 39 24
Route #12: 43 9 12 51 36 58 52 33
Route #13: 38
Route #14: 20
Route #15: 13 29 42 37
Route #16: 27 9 48 19
Route #17: 32
Route #18: 3
Route #19: 31 11 14
Route #20: 59
Route #21: 50

Cost: 3776.0463798242417
